Name: Trimethylsilylmethanol
Formula: C4H12OSi
MW: 104
ExactMass: 104.0657415
CASNO: 3219634
ID: 5262
RI:572
Comment: StdNP=813/0/2 ; NIST MS# 136226, Seq# M48089 |RI:572|
Num peaks: 54
13 2.00
14 7.99
15 33.97
16 1.00
18 2.00
26 4.00
27 17.98
28 53.95
29 138.87
30 15.99
31 114.90
32 5.00
33 1.00
39 3.00
40 1.00
41 13.99
42 62.94
43 251.77
44 53.95
45 497.55
46 28.97
47 70.94
48 3.00
49 1.00
52 2.00
53 35.97
54 8.99
55 32.97
56 6.99
57 19.98
58 40.96
59 44.96
60 1.00
61 621.44
62 37.97
63 20.98
65 3.00
66 3.00
67 2.00
70 5.00
71 6.99
72 53.95
73 999.00
74 87.92
75 68.94
76 3.00
77 2.00
88 4.00
89 76.93
90 5.00
91 2.00
104 26.98
105 3.00
106 1.00

Name: 1H-Naphtho[1,8a-c]furan-3(5H)-one, 7-[2-(3-furanyl)ethyl]-6,6a,7,8,9,10-hexahydro-5-hydroxy-7,8-dimethyl-, O-TMS
Formula: C23H34O4Si
MW: 402
ExactMass: 402.222635
CASNO: 1000480413
ID: 3677
RI:2674
Comment: SemiStdNP=2644 ; NIST MS# 480413, Seq# M48946 |RI:2674|
Num peaks: 321
27 8.99
29 11.99
31 1.00
38 1.00
39 18.98
40 4.00
41 74.93
42 5.00
43 32.97
44 6.99
45 47.96
46 3.00
47 10.99
48 1.00
50 1.00
51 8.99
52 6.99
53 88.92
54 9.99
55 86.92
56 5.00
57 15.99
58 4.00
59 18.98
60 3.00
61 13.99
62 2.00
63 3.00
64 2.00
65 45.96
66 14.99
67 73.93
68 13.99
69 60.94
70 8.99
71 5.99
72 13.99
73 999.00
74 85.92
75 187.83
76 13.99
77 79.93
78 21.98
79 71.94
80 13.99
81 470.58
82 144.87
83 39.96
84 4.00
85 5.00
86 1.00
87 2.00
88 1.00
89 8.99
90 7.99
91 128.88
92 17.98
93 46.96
94 54.95
95 198.82
96 169.85
97 27.97
98 3.00
99 5.00
100 1.00
101 4.00
102 3.00
103 35.97
104 25.98
105 111.90
106 22.98
107 65.94
108 32.97
109 44.96
110 7.99
111 9.99
112 3.00
113 3.00
114 1.00
115 41.96
116 16.98
117 84.92
118 33.97
119 68.94
120 38.96
121 80.93
122 27.97
123 53.95
124 12.99
125 10.99
126 3.00
127 10.99
128 31.97
129 45.96
130 16.98
131 110.90
132 24.98
133 72.93
134 29.97
135 130.88
136 20.98
137 147.87
138 18.98
139 8.99
140 2.00
141 20.98
142 14.99
143 43.96
144 14.99
145 59.95
146 11.99
147 41.96
148 21.98
149 118.89
150 40.96
151 52.95
152 82.93
153 15.99
154 4.00
155 14.99
156 9.99
157 29.97
158 20.98
159 83.92
160 18.98
161 38.96
162 22.98
163 45.96
164 11.99
165 11.99
166 5.00
167 12.99
168 5.99
169 17.98
170 5.99
171 23.98
172 9.99
173 23.98
174 5.99
175 18.98
176 9.99
177 8.99
178 3.00
179 24.98
180 5.00
181 14.99
182 7.99
183 86.92
184 19.98
185 61.94
186 22.98
187 34.97
188 17.98
189 43.96
190 11.99
191 16.98
192 11.99
193 21.98
194 8.99
195 21.98
196 13.99
197 30.97
198 10.99
199 24.98
200 8.99
201 10.99
202 5.99
203 13.99
204 3.00
205 21.98
206 7.99
207 53.95
208 17.98
209 23.98
210 50.95
211 37.97
212 11.99
213 9.99
214 5.99
215 7.99
216 4.00
217 37.97
218 59.95
219 23.98
220 7.99
221 35.97
222 17.98
223 34.97
224 29.97
225 17.98
226 6.99
227 5.00
228 4.00
229 7.99
230 3.00
231 9.99
232 4.00
233 31.97
234 10.99
235 11.99
236 5.99
237 12.99
238 7.99
239 10.99
240 5.00
241 6.99
242 3.00
243 5.99
244 2.00
245 6.99
246 3.00
247 16.98
248 5.00
249 11.99
250 5.00
251 14.99
252 6.99
253 10.99
254 14.99
255 11.99
256 4.00
257 14.99
258 4.00
259 17.98
260 5.00
261 16.98
262 7.99
263 13.99
264 5.00
265 4.00
266 3.00
267 14.99
268 4.00
269 7.99
270 3.00
271 2.00
272 2.00
273 91.92
274 23.98
275 56.95
276 52.95
277 75.93
278 67.94
279 43.96
280 10.99
281 7.99
282 60.94
283 24.98
284 15.99
285 50.95
286 9.99
287 4.00
288 2.00
289 16.98
290 10.99
291 14.99
292 6.99
293 3.00
294 4.00
295 2.00
297 3.00
298 1.00
299 1.00
300 1.00
301 2.00
302 1.00
303 3.00
304 2.00
305 3.00
306 3.00
307 16.98
308 25.98
309 6.99
310 2.00
311 1.00
312 29.97
313 9.99
314 2.00
315 4.00
316 2.00
317 1.00
318 1.00
319 1.00
321 1.00
327 1.00
328 5.99
329 4.00
330 3.00
331 1.00
332 1.00
339 1.00
342 1.00
343 2.00
344 1.00
345 1.00
353 1.00
354 1.00
356 1.00
357 7.99
358 9.99
359 21.98
360 9.99
361 3.00
362 1.00
369 2.00
370 1.00
371 3.00
372 4.00
373 2.00
374 2.00
375 1.00
384 2.00
385 1.00
386 3.00
387 66.94
388 21.98
389 5.99
390 1.00
402 10.99
403 3.00
404 1.00
